%mem=100GB
%nproc=48
%chk=optfreq.chk
#p MaxDisk=100GB pbe1pbe/genecp em=gd3bj int=fine scf=maxcyc=200 opt=(MaxStep=5, NoTrustUpdate, GDIIS, cartesian) freq scrf(solvent=water)

Generated by Multiwfn

  3  1
[GEOMETRY]
 
C O N H
TZVP
****
Eu
MWB52
****

Eu
MWB52


